c This is QMaxSAT 2017 based on 14.07
c This is Glucose 3.0
c This is MiniSat 2.2.0
c WARNING: for repeatability, setting FPU to use double precision
c card = mrwto, comp = 0, pmodel = 0, narr = 4, mct = 24, verb = 0
cr firstCPXsol 0 0 0
c top = 81479
c |  Number of variables:    13942                                            |
c |  Number of clauses:      3019494                                          |
c |  Weight of hard clauses: 81479                                            |
c |  Number of soft clauses: 2208                                             |
c |  Number of unit soft clauses: 2208                                        |
c |  Maximum Cardinality (by unit): 325912       (325912      )               |
c last restart ## conflicts  :  38 9395 
o 1346 | cpuTime 0.24134 s
c Sum of weights = 81478
c A number of soft clauses remained = 552
c MRWTO encoding for Pseudo-Boolean Constraints
c sizeMax=1346
c No.0 Divisor=12	generated by pow1
c No.1 Divisor=12	generated by pow1
c No.2 Divisor=12	generated by pow1
c p0= 12	p1= 12	p2= 12	
c number of digits = 4
c linkingVar[0].size = 12, linkingVar[1].size = 12, linkingVar[2].size = 10, linkingVar[3].size = 1, 
c Pseudo-Boolean Constraints: 12051 variables and 115467 clauses
c Sum of weights = 81478
c A number of soft clauses remained = 552
c MRWTO encoding for Pseudo-Boolean Constraints
c sizeMax=1346
c No.0 Divisor=12	generated by pow1
c No.1 Divisor=12	generated by pow1
c No.2 Divisor=12	generated by pow1
c p0= 12	p1= 12	p2= 12	
c number of digits = 4
c linkingVar[0].size = 12, linkingVar[1].size = 12, linkingVar[2].size = 10, linkingVar[3].size = 1, 
c Pseudo-Boolean Constraints: 12051 variables and 115467 clauses
c Sum of weights = 81478
c A number of soft clauses remained = 552
c MRWTO encoding for Pseudo-Boolean Constraints
c sizeMax=1346
c No.0 Divisor=12	generated by pow1
c No.1 Divisor=12	generated by pow1
c No.2 Divisor=12	generated by pow1
c p0= 12	p1= 12	p2= 12	
c number of digits = 4
c linkingVar[0].size = 12, linkingVar[1].size = 12, linkingVar[2].size = 10, linkingVar[3].size = 1, 
c Pseudo-Boolean Constraints: 12051 variables and 115467 clauses
c Sum of weights = 81478
c A number of soft clauses remained = 552
c MRWTO encoding for Pseudo-Boolean Constraints
c sizeMax=1346
c No.0 Divisor=12	generated by pow1
c No.1 Divisor=12	generated by pow1
c No.2 Divisor=12	generated by pow1
c p0= 12	p1= 12	p2= 12	
c number of digits = 4
c linkingVar[0].size = 12, linkingVar[1].size = 12, linkingVar[2].size = 10, linkingVar[3].size = 1, 
c Pseudo-Boolean Constraints: 12051 variables and 115467 clauses
c last restart ## conflicts  :  334 5648 
o 1311 | cpuTime 0.498356 s
c last restart ## conflicts  :  223 9615 
o 1157 | cpuTime 0.563614 s
c last restart ## conflicts  :  888 5572 
o 1091 | cpuTime 1.83021 s
c last restart ## conflicts  :  233 5814 
o 1053 | cpuTime 2.17802 s
c last restart ## conflicts  :  970 4816 
o 1043 | cpuTime 2.92388 s
c last restart ## conflicts  :  146 7653 
o 989 | cpuTime 3.05784 s
c last restart ## conflicts  :  159 5250 
o 894 | cpuTime 5.20341 s
c last restart ## conflicts  :  237 5690 
o 864 | cpuTime 8.02387 s
c last restart ## conflicts  :  129 6068 
o 845 | cpuTime 8.63739 s
c last restart ## conflicts  :  275 4794 
o 839 | cpuTime 25.8857 s
c last restart ## conflicts  :  319 5605 
o 829 | cpuTime 31.3368 s
c last restart ## conflicts  :  766 5810 
o 792 | cpuTime 32.3824 s
c last restart ## conflicts  :  205 7380 
o 787 | cpuTime 75.3403 s
c last restart ## conflicts  :  3221 5123 
o 759 | cpuTime 78.711 s
c last restart ## conflicts  :  26 9296 
o 754 | cpuTime 128.752 s
c last restart ## conflicts  :  1710 5018 
o 742 | cpuTime 198.149 s
c last restart ## conflicts  :  97 6604 
o 727 | cpuTime 517.526 s
c last restart ## conflicts  :  265 7650 
o 723 | cpuTime 877.566 s
c last restart ## conflicts  :  42 6505 
o 701 | cpuTime 954.004 s
c last restart ## conflicts  :  263 6199 
o 697 | cpuTime 1805.12 s
c last restart ## conflicts  :  430 5719 
o 688 | cpuTime 2078.84 s
c last restart ## conflicts  :  890 5552 
o 676 | cpuTime 3350.61 s
s UNKNOWN
c Search is stopped by a limit (maybe time-limit)
cr positiVarArr: [ | 16@1(1->16) | 41@1(2->17) | 338@1(15->2) | 384@1(16->24) | 405@1(17->21) | 481@1(21->1) | 567@1(24->15) | 590@2(1->14) | 631@2(3->7) | 732@2(7->12) | 819@2(11->3) | 841@2(12->1) | 899@2(14->11) | 1171@3(1->19) | 1249@3(5->1) | 1373@3(10->5) | 1570@3(18->10) | 1606@3(19->22) | 1674@3(22->18) | 1732@4(1->4) | 1823@4(4->23) | 1849@4(6->1) | 1902@4(8->6) | 1933@4(9->13) | 2036@4(13->20) | 2192@4(20->8) | 2265@4(23->9) | ]
cr the 1-th chain: [ 1->16->24->15->2->17->21->1 ] (#non-depot=6) {#cumul.=7}
cr the 2-th chain: [ 1->14->11->3->7->12->1 ] (#non-depot=5) {#cumul.=12}
cr the 3-th chain: [ 1->19->22->18->10->5->1 ] (#non-depot=5) {#cumul.=17}
cr the 4-th chain: [ 1->4->23->9->13->20->8->6->1 ] (#non-depot=7) {#cumul.=24}
c Latest Answer = 0 by 23 loops
c restarts              : 110958
c conflicts             : 16290041       (4536 /sec)
c decisions             : 102523802      (0.00 % random) (28549 /sec)
c propagations          : 13775142840    (3835838 /sec)
c conflict literals     : 3235173375     (24.55 % deleted)
c Memory used           : 867.00 MB
c CPU time              : 3591.17 s
